94 141 151 88 66 135 95 152 26 18 137 165 114 4 117 65 155 52 63 184 147 119 24 196 188 197 113 129 124 53 167 199 170 179 166 78 120 149 156 110 36 125 186 21 72 191 39 158 97 177 138 182 51 87 172 76 90 106 181 162 74 180 8 89 169 59 189 30 31 107 192 86 64 40 150 70 68 154 153 112 108 116 105 25 96 103 159 35 130 164 98 163 176 91 27 62 115 161 56 157 134 140 12 85 17 32 82 109 79 46 48 185 28 100 58 133 93 99 84 121 193 111 1 145 80 73 195 15 160 101 57 60 104 194 43 23 29 10 45 0 3 198 11 75 118 19 146 41 83 2 38 7 77 123 14 142 102 5 50 47 61 67 175 49 54 71 144 16 131 128 139 178 33 127 174 20 183 37 34 143 126 173 44 22 55 81 69 136 168 132 187 42 190 9 122 148 92 6 171 13 

